decision_x1=[0,7];
decision_x2=[0,7];
decision_x3=[0,7];
decision_x4=[0,7];
decision_x5=[0,7];
decision_x6=[0,7];
decision_x7=[0,7];
decision_x8=[0,7];
decision_x9=[0,7];
decision_x10=[0,7];
decision_x11=[0,7];
decision_x12=[0,7];
decision_x13=[0,7];
decision_x14=[0,7];
decision_x15=[0,7];
decision_x16=[0,7];
random_y1=[0,7];
random_y2=[0,7];
random_y3=[0,7];
random_y4=[0,7];
random_y5=[0,7];
random_y6=[0,7];
random_y7=[0,7];
constraint_x2_x1=[
0,0,0.031|
0,1,6.4|
0,2,3.8|
0,3,4.1|
0,4,7.7|
0,5,1.2|
0,6,5.3|
0,7,7.6|
1,0,3|
1,1,1.6|
1,2,6.2|
1,3,8.5|
1,4,1.1|
1,5,2.5|
1,6,7.4|
1,7,2.7|
2,0,5.6|
2,1,0.97|
2,2,7.4|
2,3,3.3|
2,4,1.5|
2,5,7.6|
2,6,9.6|
2,7,3.1|
3,0,5.7|
3,1,5.4|
3,2,7.6|
3,3,2.9|
3,4,2.2|
3,5,2|
3,6,9.8|
3,7,4.5|
4,0,5.8|
4,1,8.6|
4,2,4.3|
4,3,5|
4,4,5.7|
4,5,0.58|
4,6,9.5|
4,7,0.95|
5,0,1.7|
5,1,3.3|
5,2,3|
5,3,1.8|
5,4,2.6|
5,5,2.3|
5,6,3.4|
5,7,2|
6,0,2.4|
6,1,6.1|
6,2,1.7|
6,3,8|
6,4,2.1|
6,5,1.3|
6,6,7.3|
6,7,8.3|
7,0,7.4|
7,1,6.6|
7,2,2.7|
7,3,8.5|
7,4,9.4|
7,5,2.8|
7,6,1.2|
7,7,3.6|
];
constraint_x3_x2=[
0,0,3.9|
0,1,3.8|
0,2,3.7|
0,3,4.9|
0,4,7.9|
0,5,4.4|
0,6,0.22|
0,7,6|
1,0,7.9|
1,1,4.6|
1,2,5.1|
1,3,3|
1,4,4.5|
1,5,6.2|
1,6,0.87|
1,7,1.3|
2,0,3.2|
2,1,1.3|
2,2,1.1|
2,3,3.1|
2,4,9.3|
2,5,7.7|
2,6,6.4|
2,7,7.1|
3,0,3.7|
3,1,2.9|
3,2,5.4|
3,3,4.2|
3,4,7.1|
3,5,6.6|
3,6,3.1|
3,7,8.9|
4,0,0.42|
4,1,6.2|
4,2,0.32|
4,3,2.4|
4,4,6.9|
4,5,1.7|
4,6,3.5|
4,7,2.4|
5,0,4.8|
5,1,5.8|
5,2,7.3|
5,3,6.5|
5,4,1.5|
5,5,4.2|
5,6,8.2|
5,7,7.5|
6,0,7.5|
6,1,2.8|
6,2,8.6|
6,3,9.3|
6,4,0.2|
6,5,0.82|
6,6,8.1|
6,7,9.5|
7,0,0.84|
7,1,6.9|
7,2,2.3|
7,3,5.2|
7,4,6.1|
7,5,5.3|
7,6,7.4|
7,7,6.2|
];
constraint_x4_x3=[
0,0,2.6|
0,1,3.7|
0,2,4.3|
0,3,6.3|
0,4,5.4|
0,5,6|
0,6,0.52|
0,7,6.8|
1,0,4|
1,1,3.5|
1,2,3.2|
1,3,7.7|
1,4,5.6|
1,5,0.94|
1,6,4.7|
1,7,7.2|
2,0,5.2|
2,1,4.9|
2,2,8.4|
2,3,3.5|
2,4,9.6|
2,5,4|
2,6,4|
2,7,1.5|
3,0,2.2|
3,1,4|
3,2,4.7|
3,3,8.7|
3,4,9.5|
3,5,2.1|
3,6,5.1|
3,7,0.92|
4,0,5.9|
4,1,9.4|
4,2,1.6|
4,3,8.1|
4,4,0.89|
4,5,7.9|
4,6,2.2|
4,7,4.6|
5,0,8.7|
5,1,1.3|
5,2,1.9|
5,3,5.9|
5,4,6.8|
5,5,8.4|
5,6,2.3|
5,7,5|
6,0,8.2|
6,1,7.4|
6,2,5.6|
6,3,3.8|
6,4,9|
6,5,7.9|
6,6,7.7|
6,7,2.9|
7,0,4.2|
7,1,4.3|
7,2,4.2|
7,3,5|
7,4,5.3|
7,5,4.2|
7,6,2.4|
7,7,4.8|
];
constraint_x5_x1=[
0,0,0.58|
0,1,8.4|
0,2,8.8|
0,3,4.9|
0,4,9.8|
0,5,1.1|
0,6,5.7|
0,7,7.1|
1,0,3.4|
1,1,3.3|
1,2,0.48|
1,3,8.6|
1,4,5.9|
1,5,1.5|
1,6,8.3|
1,7,2.5|
2,0,3.5|
2,1,9.1|
2,2,8.8|
2,3,2.4|
2,4,1.5|
2,5,3.1|
2,6,5.8|
2,7,1.2|
3,0,0.77|
3,1,3.9|
3,2,9|
3,3,6.9|
3,4,6.3|
3,5,3|
3,6,5.8|
3,7,8.7|
4,0,9.6|
4,1,0.55|
4,2,1.1|
4,3,2.6|
4,4,6.5|
4,5,0.62|
4,6,6.9|
4,7,1.7|
5,0,0.76|
5,1,7.9|
5,2,2.3|
5,3,6.8|
5,4,3.8|
5,5,7.9|
5,6,8.2|
5,7,9.4|
6,0,6.8|
6,1,2|
6,2,7.7|
6,3,2.8|
6,4,5.4|
6,5,3.9|
6,6,5|
6,7,2.1|
7,0,9.3|
7,1,2.6|
7,2,1.2|
7,3,1.8|
7,4,5.2|
7,5,7|
7,6,9.9|
7,7,7|
];
constraint_x6_x2=[
0,0,7.2|
0,1,5|
0,2,6.4|
0,3,4.3|
0,4,4.5|
0,5,3.9|
0,6,6.8|
0,7,4.8|
1,0,0.58|
1,1,2.7|
1,2,5.7|
1,3,7.8|
1,4,3.5|
1,5,0.34|
1,6,2.2|
1,7,9.3|
2,0,0.14|
2,1,9.5|
2,2,8.2|
2,3,9.6|
2,4,8.4|
2,5,6.3|
2,6,7|
2,7,4|
3,0,6|
3,1,8.5|
3,2,7.1|
3,3,8|
3,4,5.2|
3,5,8.5|
3,6,4.3|
3,7,4.2|
4,0,3.1|
4,1,9.5|
4,2,9.6|
4,3,1.3|
4,4,4.6|
4,5,7.3|
4,6,2|
4,7,2.5|
5,0,7.1|
5,1,0.19|
5,2,1.2|
5,3,9|
5,4,2.7|
5,5,0.27|
5,6,4.7|
5,7,4|
6,0,5.7|
6,1,6.6|
6,2,1.9|
6,3,6|
6,4,5.4|
6,5,4.5|
6,6,3.4|
6,7,5.8|
7,0,5.4|
7,1,7.9|
7,2,9.2|
7,3,3.1|
7,4,1.5|
7,5,5.3|
7,6,2.8|
7,7,4.6|
];
constraint_x7_x3=[
0,0,6.7|
0,1,0.94|
0,2,9.8|
0,3,2.8|
0,4,7.3|
0,5,5.6|
0,6,8.6|
0,7,0.64|
1,0,1.8|
1,1,4|
1,2,2.9|
1,3,8.7|
1,4,9.1|
1,5,8.6|
1,6,1.9|
1,7,1.7|
2,0,6.6|
2,1,4.4|
2,2,9.1|
2,3,5.2|
2,4,9.9|
2,5,3.4|
2,6,7.7|
2,7,4.6|
3,0,0.88|
3,1,3.5|
3,2,5.8|
3,3,2|
3,4,2.9|
3,5,1|
3,6,0.39|
3,7,6.4|
4,0,7.9|
4,1,6.2|
4,2,6.8|
4,3,7.5|
4,4,9.2|
4,5,3.7|
4,6,1.7|
4,7,0.18|
5,0,2.9|
5,1,1.6|
5,2,1.5|
5,3,9.8|
5,4,3.8|
5,5,1.1|
5,6,6.9|
5,7,5.9|
6,0,4.5|
6,1,9.3|
6,2,5.2|
6,3,5.3|
6,4,3.7|
6,5,3.1|
6,6,3.9|
6,7,7.6|
7,0,8|
7,1,8.3|
7,2,5.9|
7,3,7.3|
7,4,2|
7,5,3.3|
7,6,0.018|
7,7,3.3|
];
constraint_x8_x4=[
0,0,4.5|
0,1,2|
0,2,8.9|
0,3,3.6|
0,4,7.6|
0,5,1.8|
0,6,0.042|
0,7,2.3|
1,0,1.2|
1,1,7.7|
1,2,9.6|
1,3,9.7|
1,4,5.3|
1,5,1|
1,6,0.64|
1,7,2.9|
2,0,9.2|
2,1,2.2|
2,2,0.23|
2,3,7.5|
2,4,8.5|
2,5,8.4|
2,6,6.1|
2,7,4.8|
3,0,6.7|
3,1,7.2|
3,2,3.1|
3,3,2.9|
3,4,9.8|
3,5,2.6|
3,6,0.54|
3,7,5.6|
4,0,7.7|
4,1,5.8|
4,2,3.9|
4,3,9.2|
4,4,4.6|
4,5,5.2|
4,6,6.6|
4,7,9.2|
5,0,0.57|
5,1,4.7|
5,2,7|
5,3,8.6|
5,4,6.6|
5,5,8.7|
5,6,1.3|
5,7,8.9|
6,0,1.4|
6,1,7.4|
6,2,3.5|
6,3,9.8|
6,4,0.71|
6,5,1.2|
6,6,2.3|
6,7,9.1|
7,0,1.7|
7,1,9.4|
7,2,0.34|
7,3,1.5|
7,4,1.2|
7,5,2.6|
7,6,2.5|
7,7,9.8|
];
constraint_x9_x5=[
0,0,0.81|
0,1,4|
0,2,3.8|
0,3,6.9|
0,4,5.5|
0,5,9.3|
0,6,1.9|
0,7,1.1|
1,0,6.4|
1,1,8.7|
1,2,4.8|
1,3,1.9|
1,4,8.2|
1,5,1.2|
1,6,6.7|
1,7,5.2|
2,0,4.3|
2,1,1.7|
2,2,8.5|
2,3,7.1|
2,4,1.4|
2,5,5.5|
2,6,9.3|
2,7,4.2|
3,0,5.9|
3,1,0.88|
3,2,7.2|
3,3,6.3|
3,4,5.5|
3,5,7|
3,6,0.73|
3,7,3.4|
4,0,5.4|
4,1,4.4|
4,2,3.5|
4,3,5.3|
4,4,7.8|
4,5,3.5|
4,6,0.8|
4,7,6.2|
5,0,1.6|
5,1,0.32|
5,2,5.1|
5,3,6.3|
5,4,6.7|
5,5,2.9|
5,6,4.8|
5,7,3.6|
6,0,6.2|
6,1,8.3|
6,2,6.1|
6,3,7.4|
6,4,4.8|
6,5,3|
6,6,9.9|
6,7,8.2|
7,0,0.63|
7,1,5|
7,2,2.1|
7,3,8.2|
7,4,3.9|
7,5,9.6|
7,6,10|
7,7,5.7|
];
constraint_x10_x6=[
0,0,9.6|
0,1,3.2|
0,2,4|
0,3,4.4|
0,4,8.1|
0,5,2.2|
0,6,0.96|
0,7,0.96|
1,0,8.3|
1,1,0.006|
1,2,5.3|
1,3,3.4|
1,4,8.8|
1,5,2.5|
1,6,4.4|
1,7,0.63|
2,0,7.9|
2,1,0.91|
2,2,2.7|
2,3,3.9|
2,4,5.9|
2,5,5.3|
2,6,5.5|
2,7,6.9|
3,0,2.9|
3,1,3.8|
3,2,1.5|
3,3,7|
3,4,4.4|
3,5,4.7|
3,6,8.3|
3,7,4.2|
4,0,9.4|
4,1,3.1|
4,2,2.7|
4,3,2.8|
4,4,7.5|
4,5,2|
4,6,2.3|
4,7,4.8|
5,0,0.95|
5,1,4.7|
5,2,1.2|
5,3,9.9|
5,4,7.1|
5,5,0.41|
5,6,5.7|
5,7,5.3|
6,0,2.3|
6,1,6.7|
6,2,7.7|
6,3,8.8|
6,4,9.3|
6,5,1|
6,6,9.1|
6,7,0.014|
7,0,4.2|
7,1,5.2|
7,2,0.27|
7,3,4.4|
7,4,8.5|
7,5,7.6|
7,6,0.12|
7,7,6.4|
];
constraint_x11_x7=[
0,0,9|
0,1,1.9|
0,2,4.2|
0,3,4.8|
0,4,2.7|
0,5,2.8|
0,6,4.2|
0,7,7.9|
1,0,7.4|
1,1,6.3|
1,2,6.5|
1,3,8.1|
1,4,4|
1,5,0.83|
1,6,6|
1,7,5.5|
2,0,9.9|
2,1,8.9|
2,2,9.2|
2,3,4|
2,4,3.5|
2,5,8.8|
2,6,3.5|
2,7,1.7|
3,0,4.3|
3,1,7.8|
3,2,5.9|
3,3,7.8|
3,4,8.6|
3,5,6.1|
3,6,9|
3,7,7|
4,0,5.1|
4,1,7.6|
4,2,6.9|
4,3,6.4|
4,4,8.1|
4,5,9|
4,6,2.7|
4,7,4.8|
5,0,1.9|
5,1,7.4|
5,2,1.2|
5,3,8.7|
5,4,5.2|
5,5,1.9|
5,6,1.4|
5,7,1.5|
6,0,0.57|
6,1,0.23|
6,2,3.5|
6,3,0.73|
6,4,7.4|
6,5,7.6|
6,6,9.2|
6,7,7.7|
7,0,4.9|
7,1,0.93|
7,2,7.1|
7,3,9.8|
7,4,4.3|
7,5,2.8|
7,6,1.4|
7,7,5.5|
];
constraint_x12_x8=[
0,0,1.8|
0,1,2.4|
0,2,2.6|
0,3,0.63|
0,4,8.3|
0,5,6.3|
0,6,8.6|
0,7,9.3|
1,0,4.8|
1,1,7.6|
1,2,6.9|
1,3,7.1|
1,4,7.8|
1,5,5|
1,6,1.2|
1,7,8.5|
2,0,5|
2,1,3.7|
2,2,1.2|
2,3,6.4|
2,4,0.32|
2,5,2.4|
2,6,3.3|
2,7,0.84|
3,0,6.3|
3,1,8.3|
3,2,0.81|
3,3,9.3|
3,4,6.7|
3,5,6.4|
3,6,5.3|
3,7,0.63|
4,0,6.2|
4,1,9.9|
4,2,4.1|
4,3,4.6|
4,4,2.8|
4,5,2.8|
4,6,1.8|
4,7,4.7|
5,0,0.84|
5,1,8.5|
5,2,6.5|
5,3,3.3|
5,4,7.6|
5,5,7.1|
5,6,2.5|
5,7,7.9|
6,0,0.026|
6,1,9.1|
6,2,4|
6,3,8.5|
6,4,3.4|
6,5,1.6|
6,6,3.4|
6,7,6.6|
7,0,1.5|
7,1,0.48|
7,2,8.9|
7,3,8|
7,4,8.8|
7,5,4.4|
7,6,1.9|
7,7,9.9|
];
constraint_x13_x9=[
0,0,2.4|
0,1,7|
0,2,2.4|
0,3,4.3|
0,4,9.9|
0,5,0.77|
0,6,5|
0,7,6.4|
1,0,3.1|
1,1,1.4|
1,2,9|
1,3,7.1|
1,4,7.3|
1,5,0.72|
1,6,0.52|
1,7,5.9|
2,0,5.8|
2,1,0.21|
2,2,4.7|
2,3,8.3|
2,4,1.7|
2,5,9.4|
2,6,2.6|
2,7,4|
3,0,6.8|
3,1,1.4|
3,2,1.7|
3,3,8.1|
3,4,0.27|
3,5,3.9|
3,6,1.7|
3,7,4|
4,0,5.9|
4,1,4.1|
4,2,6.7|
4,3,2|
4,4,7.3|
4,5,2.5|
4,6,0.52|
4,7,7.6|
5,0,4.3|
5,1,9.6|
5,2,5.2|
5,3,7.7|
5,4,7.2|
5,5,8.3|
5,6,5.4|
5,7,6.6|
6,0,7.2|
6,1,3.6|
6,2,6.4|
6,3,1.5|
6,4,5.3|
6,5,3.8|
6,6,8.3|
6,7,7|
7,0,3.8|
7,1,3.8|
7,2,7.4|
7,3,9.2|
7,4,5.5|
7,5,6|
7,6,4.1|
7,7,3.3|
];
constraint_x14_x10=[
0,0,7|
0,1,9.5|
0,2,3.1|
0,3,1.9|
0,4,2.1|
0,5,2.6|
0,6,7.6|
0,7,6.8|
1,0,8.8|
1,1,2|
1,2,8.7|
1,3,9.2|
1,4,7.7|
1,5,1.9|
1,6,1.8|
1,7,2.2|
2,0,1.8|
2,1,3.4|
2,2,4.2|
2,3,2.5|
2,4,2|
2,5,0.19|
2,6,7.3|
2,7,1.7|
3,0,0.33|
3,1,9.8|
3,2,0.46|
3,3,3|
3,4,6.5|
3,5,1.7|
3,6,0.37|
3,7,9.3|
4,0,5.5|
4,1,7.9|
4,2,9.4|
4,3,9|
4,4,9.8|
4,5,8.7|
4,6,3.8|
4,7,3.2|
5,0,2.5|
5,1,3.1|
5,2,1.5|
5,3,2.6|
5,4,5.1|
5,5,3.4|
5,6,5.2|
5,7,9.6|
6,0,3.7|
6,1,8.5|
6,2,10|
6,3,3.8|
6,4,8.6|
6,5,7.4|
6,6,5.2|
6,7,5.8|
7,0,1.3|
7,1,7.5|
7,2,6.9|
7,3,9|
7,4,1.2|
7,5,4.9|
7,6,4.7|
7,7,4.5|
];
constraint_x15_x11=[
0,0,2.5|
0,1,0.21|
0,2,1.6|
0,3,1.4|
0,4,3.7|
0,5,1.6|
0,6,3|
0,7,6.4|
1,0,4.1|
1,1,10|
1,2,5|
1,3,1.1|
1,4,0.52|
1,5,4.6|
1,6,8.1|
1,7,0.69|
2,0,3.6|
2,1,9.2|
2,2,7.3|
2,3,7.4|
2,4,7.1|
2,5,5.3|
2,6,7.4|
2,7,5.2|
3,0,5.5|
3,1,8.4|
3,2,5.8|
3,3,8|
3,4,4.9|
3,5,4.6|
3,6,2|
3,7,0.57|
4,0,1.4|
4,1,5.6|
4,2,1.7|
4,3,9.3|
4,4,2.1|
4,5,9.2|
4,6,7.1|
4,7,0.77|
5,0,6.5|
5,1,9.1|
5,2,5.2|
5,3,2.8|
5,4,6|
5,5,4.2|
5,6,3.6|
5,7,2.9|
6,0,7.7|
6,1,6.1|
6,2,8.8|
6,3,4.8|
6,4,8.2|
6,5,5.4|
6,6,1.7|
6,7,4.6|
7,0,7.8|
7,1,9.8|
7,2,5.7|
7,3,2.5|
7,4,3.5|
7,5,0.19|
7,6,6.5|
7,7,7.9|
];
constraint_x16_x12=[
0,0,2.8|
0,1,1.6|
0,2,4.5|
0,3,9|
0,4,5.8|
0,5,0.54|
0,6,2.9|
0,7,0.17|
1,0,7.7|
1,1,4.3|
1,2,1.2|
1,3,5.6|
1,4,1.2|
1,5,2.7|
1,6,9.7|
1,7,8.3|
2,0,8.9|
2,1,6.8|
2,2,4.2|
2,3,4|
2,4,8.9|
2,5,2.4|
2,6,8.8|
2,7,2.4|
3,0,5.9|
3,1,8.8|
3,2,5.8|
3,3,9.4|
3,4,0.83|
3,5,9.9|
3,6,8.6|
3,7,9.2|
4,0,4.3|
4,1,4.2|
4,2,8|
4,3,9.8|
4,4,1.8|
4,5,8.1|
4,6,6.7|
4,7,8.4|
5,0,9.9|
5,1,5.5|
5,2,8.4|
5,3,1.5|
5,4,2.7|
5,5,1.4|
5,6,5.3|
5,7,9.3|
6,0,4.3|
6,1,4.8|
6,2,0.69|
6,3,8.9|
6,4,8.4|
6,5,4|
6,6,6.5|
6,7,1.3|
7,0,7.6|
7,1,1.9|
7,2,6.9|
7,3,7.8|
7,4,4.7|
7,5,2.7|
7,6,9.8|
7,7,5.2|
];
constraint_x1_y1=[
0,0,0.62|
0,1,3.7|
0,2,4|
0,3,5.5|
0,4,1.5|
0,5,0.49|
0,6,7.7|
0,7,0.56|
1,0,3|
1,1,8.4|
1,2,1.8|
1,3,8|
1,4,8.6|
1,5,0.94|
1,6,5|
1,7,8.6|
2,0,8.1|
2,1,3.9|
2,2,2.1|
2,3,1.6|
2,4,2.3|
2,5,7.4|
2,6,5.4|
2,7,5.1|
3,0,0.047|
3,1,0.074|
3,2,2.6|
3,3,8.6|
3,4,3.6|
3,5,7.2|
3,6,9.6|
3,7,3.1|
4,0,8.3|
4,1,9.2|
4,2,9.4|
4,3,8.9|
4,4,2.7|
4,5,5.3|
4,6,0.24|
4,7,2.3|
5,0,7.2|
5,1,1.8|
5,2,1.9|
5,3,0.97|
5,4,2.1|
5,5,0.11|
5,6,6.8|
5,7,5.5|
6,0,7.7|
6,1,4.6|
6,2,7.6|
6,3,5|
6,4,4.6|
6,5,3|
6,6,0.88|
6,7,6.7|
7,0,4.3|
7,1,9.4|
7,2,5.8|
7,3,6.9|
7,4,2.5|
7,5,8.6|
7,6,7.8|
7,7,2.9|
];
constraint_x2_y2=[
0,0,3.3|
0,1,0.73|
0,2,1.5|
0,3,9.9|
0,4,2.1|
0,5,4.3|
0,6,3.8|
0,7,8.3|
1,0,9.2|
1,1,4.7|
1,2,1.5|
1,3,6.4|
1,4,8.2|
1,5,9.4|
1,6,3.2|
1,7,0.83|
2,0,1.6|
2,1,5.5|
2,2,0.53|
2,3,7.3|
2,4,5.3|
2,5,7.3|
2,6,9.3|
2,7,6.6|
3,0,6|
3,1,7.7|
3,2,5.7|
3,3,5.8|
3,4,0.35|
3,5,6.6|
3,6,7.9|
3,7,3.6|
4,0,5.1|
4,1,2.6|
4,2,7.6|
4,3,6.7|
4,4,3.3|
4,5,3.3|
4,6,2.8|
4,7,8.9|
5,0,6.2|
5,1,7.6|
5,2,7.9|
5,3,6.4|
5,4,5.1|
5,5,6.2|
5,6,1.3|
5,7,2|
6,0,6.9|
6,1,5.4|
6,2,9.8|
6,3,8.6|
6,4,6.2|
6,5,9.4|
6,6,5.5|
6,7,6.9|
7,0,4.2|
7,1,5.2|
7,2,9.8|
7,3,1.1|
7,4,5.8|
7,5,9.3|
7,6,7.3|
7,7,8|
];
constraint_x3_y3=[
0,0,4.2|
0,1,3.9|
0,2,1.6|
0,3,8.3|
0,4,3.4|
0,5,2|
0,6,8.9|
0,7,9.8|
1,0,4.4|
1,1,1.6|
1,2,1.2|
1,3,7.3|
1,4,4.1|
1,5,9.4|
1,6,6.7|
1,7,4.6|
2,0,7.7|
2,1,7.7|
2,2,7.1|
2,3,9.2|
2,4,9.6|
2,5,1.1|
2,6,6.9|
2,7,7.9|
3,0,7.8|
3,1,1.2|
3,2,7.7|
3,3,0.47|
3,4,3.8|
3,5,8.3|
3,6,6.3|
3,7,9.4|
4,0,7.5|
4,1,2.7|
4,2,9.3|
4,3,1.9|
4,4,9.5|
4,5,9|
4,6,0.49|
4,7,1|
5,0,8.8|
5,1,0.21|
5,2,3.2|
5,3,3.6|
5,4,2|
5,5,8.4|
5,6,3.6|
5,7,0.57|
6,0,6.6|
6,1,4|
6,2,0.35|
6,3,3.4|
6,4,9|
6,5,9.1|
6,6,9.2|
6,7,7.1|
7,0,7.6|
7,1,2.3|
7,2,9|
7,3,9.6|
7,4,1.9|
7,5,7.1|
7,6,6.8|
7,7,5.7|
];
constraint_x4_y4=[
0,0,7.8|
0,1,6.6|
0,2,9.5|
0,3,8.7|
0,4,3.5|
0,5,2.7|
0,6,6.1|
0,7,2|
1,0,1.7|
1,1,3|
1,2,5.3|
1,3,2.8|
1,4,8.9|
1,5,8.2|
1,6,2.8|
1,7,6.6|
2,0,2.5|
2,1,7.4|
2,2,6.3|
2,3,2.5|
2,4,3.8|
2,5,0.77|
2,6,5.4|
2,7,5|
3,0,6.9|
3,1,4.4|
3,2,0.68|
3,3,5.1|
3,4,4.5|
3,5,2.7|
3,6,9.6|
3,7,0.9|
4,0,9.6|
4,1,8|
4,2,9.4|
4,3,0.59|
4,4,0.72|
4,5,3.8|
4,6,6|
4,7,5.7|
5,0,3.1|
5,1,2.2|
5,2,6.4|
5,3,2.9|
5,4,6.8|
5,5,9|
5,6,9.6|
5,7,2.4|
6,0,8.9|
6,1,7.2|
6,2,4.8|
6,3,4.5|
6,4,1.2|
6,5,6.5|
6,6,3.8|
6,7,9.6|
7,0,9.6|
7,1,2.7|
7,2,9.9|
7,3,5.4|
7,4,3.7|
7,5,4.7|
7,6,8.1|
7,7,4.7|
];
constraint_x5_y5=[
0,0,8|
0,1,1.7|
0,2,8.1|
0,3,9.7|
0,4,6.5|
0,5,5.8|
0,6,4.4|
0,7,1.4|
1,0,3.1|
1,1,8.9|
1,2,2.9|
1,3,2.3|
1,4,0.49|
1,5,4.3|
1,6,3.9|
1,7,6.6|
2,0,9.2|
2,1,2.2|
2,2,4.3|
2,3,9.3|
2,4,8.4|
2,5,0.29|
2,6,3.4|
2,7,8.5|
3,0,9.3|
3,1,1.9|
3,2,8.9|
3,3,7.8|
3,4,1.3|
3,5,1.4|
3,6,7.2|
3,7,2.3|
4,0,7|
4,1,3.3|
4,2,0.33|
4,3,5.1|
4,4,4.4|
4,5,5.8|
4,6,4.3|
4,7,4|
5,0,8.8|
5,1,8.5|
5,2,6.1|
5,3,4.4|
5,4,3|
5,5,9.5|
5,6,7.6|
5,7,5.5|
6,0,4.8|
6,1,4.3|
6,2,0.54|
6,3,5.9|
6,4,9.5|
6,5,5.5|
6,6,3.2|
6,7,6.6|
7,0,7.8|
7,1,9.6|
7,2,7|
7,3,7.6|
7,4,0.022|
7,5,1.8|
7,6,6.9|
7,7,8.8|
];
constraint_x6_y6=[
0,0,9.7|
0,1,5.1|
0,2,7.3|
0,3,3.2|
0,4,9.3|
0,5,8.9|
0,6,8.9|
0,7,7.9|
1,0,9.7|
1,1,7.4|
1,2,4.8|
1,3,4.6|
1,4,3.9|
1,5,6.7|
1,6,3.9|
1,7,6.8|
2,0,3.5|
2,1,0.34|
2,2,5.1|
2,3,9.3|
2,4,2|
2,5,1.1|
2,6,10|
2,7,3.4|
3,0,8|
3,1,7.3|
3,2,1.3|
3,3,5.5|
3,4,5.8|
3,5,4.2|
3,6,9.8|
3,7,7.4|
4,0,1.8|
4,1,6|
4,2,7.5|
4,3,8.1|
4,4,9|
4,5,3.1|
4,6,0.65|
4,7,2.6|
5,0,4.6|
5,1,7.7|
5,2,7.2|
5,3,0.68|
5,4,6.7|
5,5,2.6|
5,6,1.6|
5,7,4.7|
6,0,8.4|
6,1,9.7|
6,2,7.1|
6,3,4.4|
6,4,8.5|
6,5,6.6|
6,6,0.54|
6,7,2|
7,0,8.9|
7,1,4.4|
7,2,2.6|
7,3,2.9|
7,4,8.7|
7,5,0.97|
7,6,0.4|
7,7,6.6|
];
constraint_x7_y7=[
0,0,5.8|
0,1,4.9|
0,2,4.5|
0,3,5.4|
0,4,3.1|
0,5,9.9|
0,6,8.2|
0,7,2.7|
1,0,0.28|
1,1,0.066|
1,2,1.9|
1,3,2.7|
1,4,2.1|
1,5,8.3|
1,6,3.2|
1,7,7|
2,0,4.6|
2,1,8.6|
2,2,2.5|
2,3,4|
2,4,3.5|
2,5,3.2|
2,6,9.3|
2,7,2.4|
3,0,5.5|
3,1,1.5|
3,2,1.6|
3,3,8.1|
3,4,1.6|
3,5,5.3|
3,6,7.5|
3,7,5.3|
4,0,5.8|
4,1,8.8|
4,2,7.5|
4,3,0.049|
4,4,5.3|
4,5,9.2|
4,6,3.6|
4,7,9.4|
5,0,7.6|
5,1,1.2|
5,2,8.9|
5,3,5.8|
5,4,3.1|
5,5,2.2|
5,6,9.8|
5,7,9.8|
6,0,0.88|
6,1,7.3|
6,2,7.6|
6,3,9|
6,4,0.57|
6,5,5.9|
6,6,0.36|
6,7,4.5|
7,0,6.7|
7,1,5.8|
7,2,5.3|
7,3,6.3|
7,4,4.8|
7,5,8.1|
7,6,3.2|
7,7,9.8|
];
initial_distribution_y1=[0.004,0.15,0.18,0.09,0.11,0.13,0.2,0.15];
initial_distribution_y2=[0.13,0.096,0.031,0.16,0.16,0.15,0.12,0.16];
initial_distribution_y3=[0.12,0.18,0.18,0.04,0.041,0.18,0.2,0.061];
initial_distribution_y4=[0.22,0.13,0.07,0.13,0.067,0.15,0.018,0.22];
initial_distribution_y5=[0.074,0.21,0.062,0.12,0.27,0.0039,0.042,0.21];
initial_distribution_y6=[0.17,0.13,0.067,0.19,0.11,0.14,0.13,0.067];
initial_distribution_y7=[0.2,0.19,0.015,0.13,0.24,0.081,0.034,0.11];
transition_y1=[
0.041,0.21,0.1,0.15,0.31,0.11,0.013,0.065|
0.05,0.16,0.12,0.13,0.17,0.17,0.069,0.13|
0.061,0.11,0.11,0.15,0.14,0.17,0.13,0.12|
0.27,0.16,0.093,0.011,0.1,0.2,0.13,0.033|
0.28,0.098,0.26,0.031,0.22,0.0056,0.013,0.092|
0.085,0.12,0.0034,0.19,0.19,0.063,0.18,0.16|
0.12,0.16,0.26,0.21,0.13,0.0052,0.095,0.0075|
0.16,0.17,0.11,0.14,0.037,0.17,0.029,0.18|
];
transition_y2=[
0.17,0.14,0.18,0.053,0.18,0.24,0.018,0.011|
0.095,0.042,0.15,0.18,0.092,0.13,0.096,0.21|
0.069,0.17,0.017,0.1,0.14,0.12,0.23,0.15|
0.067,0.21,0.2,0.16,0.072,0.079,0.12,0.087|
0.094,0.055,0.099,0.21,0.25,0.042,0.0063,0.25|
0.02,0.06,0.063,0.23,0.14,0.098,0.14,0.25|
0.0054,0.11,0.11,0.099,0.056,0.22,0.15,0.26|
0.18,0.12,0.18,0.043,0.062,0.18,0.05,0.18|
];
transition_y3=[
0.16,0.13,0.18,0.0023,0.15,0.13,0.075,0.18|
0.093,0.26,0.0097,0.25,0.17,0.0078,0.14,0.075|
0.074,0.16,0.011,0.17,0.1,0.2,0.063,0.22|
0.1,0.017,0.16,0.18,0.11,0.12,0.15,0.16|
0.14,0.078,0.19,0.03,0.068,0.25,0.041,0.21|
0.021,0.15,0.2,0.12,0.081,0.16,0.053,0.21|
0.14,0.13,0.13,0.12,0.13,0.13,0.11,0.11|
0.07,0.026,0.22,0.16,0.17,0.1,0.23,0.018|
];
transition_y4=[
0.12,0.15,0.14,0.067,0.19,0.064,0.15,0.12|
0.099,0.16,0.031,0.18,0.19,0.013,0.027,0.29|
0.19,0.013,0.11,0.16,0.2,0.0075,0.19,0.13|
0.095,0.22,0.15,0.077,0.12,0.11,0.11,0.12|
0.21,0.18,0.085,0.11,0.18,0.15,0.053,0.037|
0.065,0.21,0.26,0.0058,0.084,0.18,0.17,0.026|
0.13,0.14,0.17,0.14,0.15,0.015,0.14,0.13|
0.1,0.13,0.18,0.019,0.074,0.15,0.14,0.19|
];
transition_y5=[
0.18,0.011,0.21,0.041,0.18,0.18,0.11,0.08|
0.11,0.065,0.09,0.14,0.14,0.16,0.14,0.15|
0.16,0.059,0.046,0.062,0.15,0.086,0.27,0.16|
0.027,0.12,0.078,0.18,0.09,0.18,0.096,0.23|
0.1,0.16,0.13,0.12,0.13,0.12,0.059,0.18|
0.16,0.18,0.16,0.22,0.17,0.0081,0.0097,0.092|
0.061,0.1,0.18,0.14,0.068,0.15,0.15,0.14|
0.042,0.099,0.0032,0.089,0.16,0.23,0.3,0.071|
];
transition_y6=[
0.22,0.21,0.064,0.097,0.17,0.056,0.11,0.079|
0.01,0.2,0.28,0.085,0.1,0.076,0.12,0.13|
0.16,0.069,0.059,0.077,0.052,0.13,0.22,0.23|
0.13,0.14,0.2,0.081,0.031,0.23,0.18,0.015|
0.23,0.065,0.092,0.13,0.14,0.074,0.16,0.1|
0.13,0.32,0.0042,0.053,0.33,0.065,0.071,0.028|
0.16,0.14,0.086,0.15,0.06,0.15,0.16,0.098|
0.16,0.24,0.021,0.073,0.093,0.032,0.15,0.22|
];
transition_y7=[
0.016,0.19,0.18,0.2,0.14,0.0043,0.14,0.13|
0.15,0.12,0.11,0.16,0.079,0.19,0.05,0.14|
0.24,0.092,0.087,0.15,0.11,0.24,0.051,0.043|
0.2,0.13,0.11,0.22,0.17,0.11,0.0072,0.059|
0.2,0.075,0.1,0.042,0.16,0.19,0.14,0.098|
0.048,0.22,0.19,0.097,0.12,0.032,0.19,0.11|
0.11,0.21,0.17,0.059,0.06,0.13,0.18,0.084|
0.13,0.13,0.19,0.0022,0.15,0.18,0.15,0.06|
];
